19,2	0,0	19,4	15,7	0,0	0,0	0,0	0,0	0,0	8,0
8,8	9,0	0,0	6,4	10,1	0,0	0,0	12,8	0,0	0,0
0,0	0,0	8,1	0,0	15,2	13,8	0,0	0,0	7,0	0,0
6,6	0,0	7,8	0,0	0,0	0,0	7,0	0,0	0,0	0,0
0,0	15,9	0,0	8,3	9,2	0,0	0,0	5,5	0,0	0,0
0,0	5,8	12,3	0,0	18,4	13,6	0,0	0,0	12,9	0,0
0,0	9,4	0,0	8,7	0,0	0,0	12,3	0,0	0,0	16,7
8,9	0,0	15,4	0,0	0,0	0,0	0,0	0,0	0,0	19,0
0,0	13,5	0,0	6,3	11,9	0,0	0,0	5,8	0,0	0,0
0,0	0,0	16,4	0,0	0,0	5,3	12,9	0,0	0,0	10,0
0,0	14,5	0,0	0,0	15,6	0,0	7,0	0,0	18,4	7,8
12,2	0,0	11,2	0,0	10,2	0,0	12,5	10,3	9,6	0,0
0,0	6,1	0,0	0,0	0,0	16,0	0,0	19,5	7,4	6,5
6,9	9,8	18,5	0,0	0,0	18,7	0,0	16,4	14,9	0,0
14,2	0,0	7,9	0,0	18,3	11,5	17,0	18,1	0,0	0,0
0,0	8,4	0,0	15,8	0,0	17,5	0,0	8,9	0,0	0,0
19,2	0,0	15,7	10,7	5,7	0,0	0,0	14,4	0,0	0,0
0,0	0,0	10,8	0,0	0,0	13,8	17,0	0,0	17,3	5,6
19,7	0,0	0,0	17,0	6,5	17,2	13,8	9,1	0,0	14,5
0,0	9,5	0,0	17,7	0,0	0,0	8,5	0,0	5,9	16,6
									
4,3	3,1	4,1	4,1	4,0	3,1	4,5	3,3	3,5	4,5
